267,341
425,489
593,392
596,379
518,726
464,833
425,489
510,351
427,152
654,353
668,432
947,213
536,301
453,332
510,351
646,358
654,491
672,465
734,379
690,465
494,501
723,140
746,-8
723,140
947,213
858,753
667,494
